decision_x1=[0,2];
decision_x2=[0,2];
decision_x3=[0,2];
decision_x4=[0,2];
decision_x5=[0,2];
decision_x6=[0,2];
decision_x7=[0,2];
decision_x8=[0,2];
decision_x9=[0,2];
decision_x10=[0,2];
decision_x11=[0,2];
decision_x12=[0,2];
random_y1=[0,2];
random_y2=[0,2];
random_y3=[0,2];
random_y4=[0,2];
random_y5=[0,2];
random_y6=[0,2];
random_y7=[0,2];
random_y8=[0,2];
random_y9=[0,2];
random_y10=[0,2];
random_y11=[0,2];
random_y12=[0,2];
constraint_x2_x1=[
0,0,1.7|
0,1,74|
0,2,21|
1,0,42|
1,1,66|
1,2,60|
2,0,27|
2,1,28|
2,2,24|
];
constraint_x3_x1=[
0,0,50|
0,1,45|
0,2,18|
1,0,15|
1,1,4.7|
1,2,43|
2,0,71|
2,1,1e+02|
2,2,63|
];
constraint_x4_x2=[
0,0,53|
0,1,43|
0,2,78|
1,0,17|
1,1,47|
1,2,64|
2,0,35|
2,1,47|
2,2,31|
];
constraint_x5_x1=[
0,0,20|
0,1,44|
0,2,0.53|
1,0,21|
1,1,1e+02|
1,2,82|
2,0,32|
2,1,99|
2,2,8|
];
constraint_x5_x2=[
0,0,12|
0,1,93|
0,2,1.3|
1,0,27|
1,1,27|
1,2,11|
2,0,45|
2,1,33|
2,2,83|
];
constraint_x5_x3=[
0,0,11|
0,1,50|
0,2,5.6|
1,0,52|
1,1,1e+02|
1,2,59|
2,0,13|
2,1,42|
2,2,69|
];
constraint_x6_x4=[
0,0,85|
0,1,7.3|
0,2,67|
1,0,25|
1,1,84|
1,2,84|
2,0,57|
2,1,32|
2,2,86|
];
constraint_x6_x5=[
0,0,60|
0,1,22|
0,2,13|
1,0,60|
1,1,81|
1,2,10|
2,0,92|
2,1,8.5|
2,2,9|
];
constraint_x7_x4=[
0,0,93|
0,1,84|
0,2,85|
1,0,35|
1,1,85|
1,2,70|
2,0,60|
2,1,71|
2,2,87|
];
constraint_x8_x1=[
0,0,41|
0,1,95|
0,2,17|
1,0,59|
1,1,98|
1,2,72|
2,0,57|
2,1,95|
2,2,36|
];
constraint_x9_x6=[
0,0,43|
0,1,57|
0,2,57|
1,0,75|
1,1,85|
1,2,24|
2,0,80|
2,1,99|
2,2,47|
];
constraint_x10_x1=[
0,0,80|
0,1,38|
0,2,42|
1,0,71|
1,1,46|
1,2,78|
2,0,93|
2,1,38|
2,2,28|
];
constraint_x10_x2=[
0,0,56|
0,1,35|
0,2,89|
1,0,22|
1,1,91|
1,2,0.26|
2,0,61|
2,1,10|
2,2,54|
];
constraint_x10_x3=[
0,0,73|
0,1,41|
0,2,67|
1,0,14|
1,1,99|
1,2,47|
2,0,15|
2,1,46|
2,2,44|
];
constraint_x10_x4=[
0,0,16|
0,1,74|
0,2,80|
1,0,43|
1,1,3.2|
1,2,45|
2,0,57|
2,1,11|
2,2,51|
];
constraint_x10_x5=[
0,0,38|
0,1,64|
0,2,91|
1,0,92|
1,1,1e+02|
1,2,55|
2,0,53|
2,1,49|
2,2,36|
];
constraint_x10_x8=[
0,0,67|
0,1,54|
0,2,55|
1,0,86|
1,1,51|
1,2,60|
2,0,82|
2,1,66|
2,2,82|
];
constraint_x11_x1=[
0,0,1.9|
0,1,71|
0,2,22|
1,0,25|
1,1,5.4|
1,2,87|
2,0,1.1|
2,1,91|
2,2,58|
];
constraint_x11_x2=[
0,0,11|
0,1,26|
0,2,84|
1,0,48|
1,1,11|
1,2,56|
2,0,0.24|
2,1,45|
2,2,71|
];
constraint_x11_x4=[
0,0,27|
0,1,86|
0,2,72|
1,0,65|
1,1,42|
1,2,32|
2,0,21|
2,1,57|
2,2,25|
];
constraint_x11_x5=[
0,0,29|
0,1,28|
0,2,13|
1,0,15|
1,1,26|
1,2,77|
2,0,37|
2,1,91|
2,2,38|
];
constraint_x11_x8=[
0,0,21|
0,1,92|
0,2,95|
1,0,81|
1,1,64|
1,2,81|
2,0,21|
2,1,53|
2,2,81|
];
constraint_x11_x9=[
0,0,49|
0,1,52|
0,2,10|
1,0,17|
1,1,42|
1,2,68|
2,0,95|
2,1,23|
2,2,72|
];
constraint_x11_x10=[
0,0,42|
0,1,98|
0,2,8.8|
1,0,5.3|
1,1,12|
1,2,88|
2,0,32|
2,1,41|
2,2,54|
];
constraint_x12_x1=[
0,0,47|
0,1,93|
0,2,44|
1,0,57|
1,1,16|
1,2,15|
2,0,17|
2,1,81|
2,2,80|
];
constraint_x12_x2=[
0,0,89|
0,1,17|
0,2,7.5|
1,0,31|
1,1,77|
1,2,61|
2,0,5.9|
2,1,34|
2,2,25|
];
constraint_x12_x4=[
0,0,26|
0,1,62|
0,2,70|
1,0,79|
1,1,20|
1,2,53|
2,0,58|
2,1,68|
2,2,40|
];
constraint_x12_x5=[
0,0,58|
0,1,41|
0,2,42|
1,0,88|
1,1,9.2|
1,2,34|
2,0,38|
2,1,29|
2,2,48|
];
constraint_x12_x6=[
0,0,51|
0,1,82|
0,2,56|
1,0,45|
1,1,34|
1,2,44|
2,0,87|
2,1,30|
2,2,90|
];
constraint_x12_x7=[
0,0,97|
0,1,61|
0,2,91|
1,0,33|
1,1,24|
1,2,3.8|
2,0,33|
2,1,95|
2,2,96|
];
constraint_x12_x9=[
0,0,69|
0,1,77|
0,2,50|
1,0,77|
1,1,70|
1,2,30|
2,0,99|
2,1,82|
2,2,18|
];
constraint_x12_x10=[
0,0,48|
0,1,84|
0,2,7.6|
1,0,98|
1,1,64|
1,2,86|
2,0,50|
2,1,85|
2,2,90|
];
constraint_x12_x11=[
0,0,86|
0,1,7.1|
0,2,39|
1,0,57|
1,1,63|
1,2,15|
2,0,67|
2,1,1e+02|
2,2,62|
];
constraint_x1_y1=[
0,0,30|
0,1,77|
0,2,25|
1,0,39|
1,1,17|
1,2,80|
2,0,74|
2,1,61|
2,2,7.2|
];
constraint_x2_y2=[
0,0,29|
0,1,6.1|
0,2,20|
1,0,29|
1,1,9.5|
1,2,28|
2,0,13|
2,1,12|
2,2,59|
];
constraint_x3_y3=[
0,0,92|
0,1,88|
0,2,78|
1,0,85|
1,1,70|
1,2,88|
2,0,42|
2,1,65|
2,2,25|
];
constraint_x4_y4=[
0,0,23|
0,1,19|
0,2,63|
1,0,12|
1,1,69|
1,2,60|
2,0,1.8|
2,1,79|
2,2,86|
];
constraint_x5_y5=[
0,0,92|
0,1,18|
0,2,97|
1,0,14|
1,1,8.5|
1,2,52|
2,0,46|
2,1,94|
2,2,68|
];
constraint_x6_y6=[
0,0,89|
0,1,32|
0,2,46|
1,0,62|
1,1,10|
1,2,13|
2,0,14|
2,1,95|
2,2,38|
];
constraint_x7_y7=[
0,0,34|
0,1,96|
0,2,66|
1,0,31|
1,1,58|
1,2,39|
2,0,23|
2,1,65|
2,2,53|
];
constraint_x8_y8=[
0,0,12|
0,1,0.97|
0,2,94|
1,0,22|
1,1,25|
1,2,21|
2,0,53|
2,1,50|
2,2,29|
];
constraint_x9_y9=[
0,0,45|
0,1,87|
0,2,44|
1,0,28|
1,1,57|
1,2,17|
2,0,15|
2,1,49|
2,2,32|
];
constraint_x10_y10=[
0,0,30|
0,1,2.6|
0,2,94|
1,0,22|
1,1,2.6|
1,2,15|
2,0,20|
2,1,41|
2,2,82|
];
constraint_x11_y11=[
0,0,87|
0,1,3.8|
0,2,55|
1,0,97|
1,1,90|
1,2,0.96|
2,0,28|
2,1,43|
2,2,22|
];
constraint_x12_y12=[
0,0,39|
0,1,16|
0,2,40|
1,0,72|
1,1,73|
1,2,20|
2,0,93|
2,1,94|
2,2,4.1|
];
initial_distribution_y1=[0.42,0.075,0.5];
initial_distribution_y2=[0.083,0.41,0.51];
initial_distribution_y3=[0.42,0.19,0.39];
initial_distribution_y4=[0.068,0.3,0.63];
initial_distribution_y5=[0.28,0.68,0.038];
initial_distribution_y6=[0.32,0.34,0.34];
initial_distribution_y7=[0.44,0.42,0.14];
initial_distribution_y8=[0.48,0.25,0.27];
initial_distribution_y9=[0.69,0.088,0.22];
initial_distribution_y10=[0.28,0.31,0.41];
initial_distribution_y11=[0.39,0.47,0.14];
initial_distribution_y12=[0.47,0.44,0.088];
transition_y1=[
0.18,0.41,0.41|
0.42,0.22,0.37|
0.23,0.31,0.46|
];
transition_y2=[
0.19,0.16,0.65|
0.34,0.6,0.057|
0.35,0.63,0.012|
];
transition_y3=[
0.29,0.38,0.33|
0.47,0.4,0.13|
0.27,0.22,0.51|
];
transition_y4=[
0.11,0.5,0.39|
0.39,0.29,0.32|
0.14,0.34,0.52|
];
transition_y5=[
0.34,0.41,0.26|
0.51,0.08,0.41|
0.3,0.38,0.33|
];
transition_y6=[
0.05,0.46,0.49|
0.21,0.075,0.72|
0.16,0.11,0.73|
];
transition_y7=[
0.63,0.34,0.032|
0.44,0.064,0.49|
0.41,0.21,0.38|
];
transition_y8=[
0.43,0.15,0.42|
0.45,0.34,0.21|
0.23,0.31,0.46|
];
transition_y9=[
0.33,0.46,0.21|
0.034,0.56,0.41|
0.14,0.5,0.36|
];
transition_y10=[
0.32,0.34,0.34|
0.27,0.6,0.13|
0.54,0.37,0.095|
];
transition_y11=[
0.42,0.26,0.32|
0.49,0.39,0.12|
0.36,0.24,0.4|
];
transition_y12=[
0.018,0.38,0.6|
0.15,0.47,0.37|
0.33,0.64,0.03|
];
